c Random generated cnf formula, satisfiable: false
p cnf 10 50
-9 2 -3 0
2 -1 4 0
9 -7 6 0
-8 -10 -3 0
-7 -1 -3 0
-2 -9 -7 0
-10 -4 -9 0
1 -4 -8 0
-6 -3 -1 0
-8 -3 6 0
8 -9 -4 0
9 -5 10 0
4 3 1 0
7 -5 -3 0
9 -4 -5 0
9 1 -10 0
5 8 -4 0
3 7 -8 0
-8 3 -2 0
10 -7 3 0
5 7 -1 0
7 10 5 0
-1 6 -5 0
-10 -5 7 0
-4 -10 -8 0
-8 1 -3 0
2 -1 -6 0
-2 -9 -7 0
-2 7 3 0
3 1 -7 0
-9 7 -2 0
-7 -8 -6 0
-1 7 10 0
4 -3 10 0
9 5 1 0
-7 -6 5 0
1 -6 -8 0
3 -8 10 0
2 1 -4 0
-6 -9 -1 0
-3 10 2 0
10 -2 -3 0
-4 -2 -3 0
3 4 2 0
4 -9 -5 0
-1 6 7 0
-9 3 5 0
-5 -1 8 0
4 -3 7 0
4 5 -9 0
